(declare-fun X0 () Int)
(declare-fun X1 () Int)
(declare-fun X2 () Int)
(declare-fun X3 () Int)
(assert (<= (- X1 X2) 5))
(assert (>= (- X1 X2) 0))
(assert (<= (- X2 X0) 5))
(assert (>= (- X2 X0) 0))
(assert (<= (- X3 X1) 5))
(assert (>= (- X3 X1) 0))
(check-sat)
